
Gurobi 8.1.1 (linux64, Java) logging started Tue Jun  4 10:25:04 2019

Academic license - for non-commercial use only
Optimize a model with 1205 rows, 162006 columns and 324412 nonzeros
Variable types: 0 continuous, 162006 integer (162006 binary)
Coefficient statistics:
  Matrix range     [1e+00, 8e+03]
  Objective range  [1e+00, 1e+00]
  Bounds range     [1e+00, 1e+00]
  RHS range        [1e+00, 1e+00]
Presolve time: 0.77s
Presolved: 1205 rows, 162006 columns, 324412 nonzeros
Variable types: 0 continuous, 162006 integer (162006 binary)
Found heuristic solution: objective 402.0000000

Root relaxation: objective 1.320000e+02, 5247 iterations, 3.26 seconds
Total elapsed time = 12.21s
Total elapsed time = 16.67s

    Nodes    |    Current Node    |     Objective Bounds      |     Work
 Expl Unexpl |  Obj  Depth IntInf | Incumbent    BestBd   Gap | It/Node Time

     0     0  132.00000    0  296  402.00000  132.00000  67.2%     -   24s
H    0     0                     148.0000000  132.00000  10.8%     -   26s
H    0     0                     147.0000000  132.00000  10.2%     -   26s
     0     0  132.00000    0  260  147.00000  132.00000  10.2%     -   29s
H    0     0                     133.0000000  132.00000  0.75%     -   30s
     0     0  132.00000    0  251  133.00000  132.00000  0.75%     -   30s
     0     0  132.00000    0  206  133.00000  132.00000  0.75%     -   34s
     0     0  132.00000    0  143  133.00000  132.00000  0.75%     -   36s
     0     0  132.00000    0  234  133.00000  132.00000  0.75%     -   36s
     0     0  132.00000    0  281  133.00000  132.00000  0.75%     -   38s
     0     0  132.00000    0  216  133.00000  132.00000  0.75%     -   40s
     0     0  132.00000    0  215  133.00000  132.00000  0.75%     -   41s
     0     0  132.00000    0  159  133.00000  132.00000  0.75%     -   53s
     0     0  132.00000    0  306  133.00000  132.00000  0.75%     -   54s
     0     0  132.00000    0  189  133.00000  132.00000  0.75%     -   56s
     0     2  132.00000    0  188  133.00000  132.00000  0.75%     -   58s
    14    17  132.00000    6  241  133.00000  132.00000  0.75%   412   60s
    70    71  132.00000   22  247  133.00000  132.00000  0.75%   198   65s
   183   165  132.00000   53  236  133.00000  132.00000  0.75%   202   70s
   263   238  132.00000   52  258  133.00000  132.00000  0.75%   227   75s
   358   327  132.00000   85  251  133.00000  132.00000  0.75%   236   80s
   481   410  132.00000  136  234  133.00000  132.00000  0.75%   247   86s
   724   569  132.00000   80  206  133.00000  132.00000  0.75%   215   91s
   729   572  132.00000   41  219  133.00000  132.00000  0.75%   214   96s
   733   575  132.00000   73  216  133.00000  132.00000  0.75%   213  101s
   742   584  132.00000   17  205  133.00000  132.00000  0.75%   359  105s
   761   595  132.00000   21  198  133.00000  132.00000  0.75%   354  110s
   805   620  132.00000   31  198  133.00000  132.00000  0.75%   344  117s
   862   646  132.00000   44  205  133.00000  132.00000  0.75%   330  122s
   919   678  132.00000   56  216  133.00000  132.00000  0.75%   319  125s
  1013   705  132.00000   68  216  133.00000  132.00000  0.75%   313  133s
  1082   714  132.00000   54  186  133.00000  132.00000  0.75%   308  137s
  1143   733  132.00000   66  204  133.00000  132.00000  0.75%   310  141s
  1201   760  132.00000   59  200  133.00000  132.00000  0.75%   306  145s
  1330   824  132.00000   82  216  133.00000  132.00000  0.75%   301  154s
  1404   863  132.00000   95  208  133.00000  132.00000  0.75%   300  158s
  1490   917  132.00000  115  205  133.00000  132.00000  0.75%   295  162s
  1572   967 infeasible  135       133.00000  132.00000  0.75%   293  166s
  1663  1014  132.00000   76  207  133.00000  132.00000  0.75%   290  171s
  1752  1028  132.00000  188  183  133.00000  132.00000  0.75%   291  175s
  1862  1036  132.00000  205  181  133.00000  132.00000  0.75%   284  180s
  2073   964 infeasible  183       133.00000  132.00000  0.75%   276  189s
  2194   899  132.00000  199  176  133.00000  132.00000  0.75%   273  192s
  2268   851 infeasible  207       133.00000  132.00000  0.75%   272  196s
  2340   827 infeasible  181       133.00000  132.00000  0.75%   271  202s
  2449   852  132.00000   80  206  133.00000  132.00000  0.75%   271  207s
  2573   923  132.00000  115  197  133.00000  132.00000  0.75%   267  213s
  2709  1033 infeasible  151       133.00000  132.00000  0.75%   262  219s
  2861  1108  132.00000  187  184  133.00000  132.00000  0.75%   257  225s
  3001  1196  132.00000  144  206  133.00000  132.00000  0.75%   253  231s
  3143  1281  132.00000  177  190  133.00000  132.00000  0.75%   251  237s
  3311  1333 infeasible  192       133.00000  132.00000  0.75%   250  244s
  3474  1362  132.00000  161  196  133.00000  132.00000  0.75%   247  250s
  3633  1430  132.00000  181  185  133.00000  132.00000  0.75%   248  257s
  3820  1517  132.00000  182  177  133.00000  132.00000  0.75%   244  264s
  4000  1569 infeasible  179       133.00000  132.00000  0.75%   244  272s
  4185  1562  132.00000  175  191  133.00000  132.00000  0.75%   242  277s
  4313  1543 infeasible  176       133.00000  132.00000  0.75%   241  284s
  4487  1546 infeasible  190       133.00000  132.00000  0.75%   239  292s
  4683  1564  132.00000  192  187  133.00000  132.00000  0.75%   238  300s
  4891  1604 infeasible  199       133.00000  132.00000  0.75%   237  307s
  5087  1623 infeasible  143       133.00000  132.00000  0.75%   236  312s
  5201  1654  132.00000  142  187  133.00000  132.00000  0.75%   236  321s
  5462  1778  132.00000  141  186  133.00000  132.00000  0.75%   232  330s
  5661  1925  132.00000  183  193  133.00000  132.00000  0.75%   232  340s
  5870  2017  132.00000  212  181  133.00000  132.00000  0.75%   233  349s
  6102  2100  132.00000  182  196  133.00000  132.00000  0.75%   231  359s
  6315  2195  132.00000  208  191  133.00000  132.00000  0.75%   231  367s
  6493  2188 infeasible  165       133.00000  132.00000  0.75%   232  376s
  6656  2234 infeasible  211       133.00000  132.00000  0.75%   231  386s
  6875  2304  132.00000  156  207  133.00000  132.00000  0.75%   229  396s
  7110  2376  132.00000  163  181  133.00000  132.00000  0.75%   230  405s
  7331  2455  132.00000  130  332  133.00000  132.00000  0.75%   229  410s
  7335  2457  132.00000  104  280  133.00000  132.00000  0.75%   229  415s
  7341  2464  132.00000   31  175  133.00000  132.00000  0.75%   236  420s
  7374  2483  132.00000   39  205  133.00000  132.00000  0.75%   235  427s
  7393  2497  132.00000   44  188  133.00000  132.00000  0.75%   235  431s
  7453  2525  132.00000   57  196  133.00000  132.00000  0.75%   235  435s
  7542  2580  132.00000   77  195  133.00000  132.00000  0.75%   234  443s
  7592  2601  132.00000   41  195  133.00000  132.00000  0.75%   233  447s
  7637  2631  132.00000   54  188  133.00000  132.00000  0.75%   233  452s
  7714  2666  132.00000   51  191  133.00000  132.00000  0.75%   232  456s
  7783  2691  132.00000   44  189  133.00000  132.00000  0.75%   232  460s
  7932  2783  132.00000   47  201  133.00000  132.00000  0.75%   230  469s
  8013  2804  132.00000   45  189  133.00000  132.00000  0.75%   230  473s
  8102  2845  132.00000   58  196  133.00000  132.00000  0.75%   229  477s
  8188  2871  132.00000   77  202  133.00000  132.00000  0.75%   228  482s
  8291  2899  132.00000   49  206  133.00000  132.00000  0.75%   227  486s
  8385  2950  132.00000   70  207  133.00000  132.00000  0.75%   227  491s
  8483  2983  132.00000   64  174  133.00000  132.00000  0.75%   227  496s
  8585  3050  132.00000   87  195  133.00000  132.00000  0.75%   227  501s
  8697  3090  132.00000  112  187  133.00000  132.00000  0.75%   227  506s
  8800  3132 infeasible   98       133.00000  132.00000  0.75%   228  511s
  8907  3179  132.00000  112  182  133.00000  132.00000  0.75%   228  517s
  9029  3230  132.00000  135  160  133.00000  132.00000  0.75%   228  522s
  9159  3274  132.00000  140  170  133.00000  132.00000  0.75%   228  528s
  9312  3292  132.00000   81  184  133.00000  132.00000  0.75%   227  534s
  9405  3335  132.00000  122  188  133.00000  132.00000  0.75%   227  540s
  9575  3410  132.00000  163  177  133.00000  132.00000  0.75%   226  546s
  9744  3430 infeasible  104       133.00000  132.00000  0.75%   225  552s
  9858  3408 infeasible  159       133.00000  132.00000  0.75%   224  558s
 10061  3433  132.00000  159  173  133.00000  132.00000  0.75%   223  563s
 10217  3427 infeasible  167       133.00000  132.00000  0.75%   222  569s
 10369  3381  132.00000  160  166  133.00000  132.00000  0.75%   221  571s
 10433  3341 infeasible  162       133.00000  132.00000  0.75%   220  577s
 10621  3357  132.00000  132  169  133.00000  132.00000  0.75%   219  584s
 10815  3417  132.00000  147  188  133.00000  132.00000  0.75%   218  591s
 11000  3433  132.00000  145  171  133.00000  132.00000  0.75%   218  598s
 11183  3501  132.00000  136  187  133.00000  132.00000  0.75%   219  600s

Cutting planes:
  Gomory: 18
  Cover: 104
  Clique: 31
  StrongCG: 2
  Flow cover: 2
  Zero half: 8

Explored 11223 nodes (2524652 simplex iterations) in 600.01 seconds
Thread count was 4 (of 4 available processors)

Solution count 4: 133 147 148 402 

Time limit reached
Best objective 1.330000000000e+02, best bound 1.320000000000e+02, gap 0.7519%
